(set-option :produce-models true)
(set-logic QF_UF)
(declare-fun p83() Bool)
(declare-fun p2() Bool)
(declare-fun p20() Bool)
(declare-fun p66() Bool)
(declare-fun p80() Bool)
(declare-fun p19() Bool)
(declare-fun p3() Bool)
(declare-fun p52() Bool)
(declare-fun p36() Bool)
(declare-fun p11() Bool)
(declare-fun p89() Bool)
(declare-fun p42() Bool)
(declare-fun p81() Bool)
(declare-fun p49() Bool)
(declare-fun p69() Bool)
(declare-fun p43() Bool)
(declare-fun p13() Bool)
(declare-fun p16() Bool)
(declare-fun p8() Bool)
(declare-fun p41() Bool)
(declare-fun p75() Bool)
(declare-fun p39() Bool)
(declare-fun p82() Bool)
(declare-fun p38() Bool)
(declare-fun p33() Bool)
(declare-fun p88() Bool)
(declare-fun p37() Bool)
(declare-fun p62() Bool)
(declare-fun p34() Bool)
(declare-fun p71() Bool)
(declare-fun p51() Bool)
(declare-fun p23() Bool)
(declare-fun p68() Bool)
(declare-fun p46() Bool)
(declare-fun p47() Bool)
(declare-fun p14() Bool)
(declare-fun p27() Bool)
(declare-fun p65() Bool)
(declare-fun p86() Bool)
(declare-fun p78() Bool)
(declare-fun p84() Bool)
(declare-fun p59() Bool)
(declare-fun p35() Bool)
(declare-fun p56() Bool)
(declare-fun p55() Bool)
(declare-fun p10() Bool)
(declare-fun p9() Bool)
(declare-fun p18() Bool)
(declare-fun p29() Bool)
(declare-fun p7() Bool)
(declare-fun p64() Bool)
(declare-fun p76() Bool)
(declare-fun p0() Bool)
(declare-fun p79() Bool)
(declare-fun p63() Bool)
(declare-fun p30() Bool)
(declare-fun p60() Bool)
(declare-fun p17() Bool)
(declare-fun p45() Bool)
(declare-fun p4() Bool)
(declare-fun p6() Bool)
(declare-fun p24() Bool)
(declare-fun p73() Bool)
(declare-fun p87() Bool)
(declare-fun p15() Bool)
(declare-fun p22() Bool)
(declare-fun p54() Bool)
(declare-fun p1() Bool)
(declare-fun p25() Bool)
(declare-fun p57() Bool)
(declare-fun p44() Bool)
(declare-fun p70() Bool)
(declare-fun p48() Bool)
(declare-fun p21() Bool)
(declare-fun p53() Bool)
(declare-fun p32() Bool)
(declare-fun p31() Bool)
(declare-fun p74() Bool)
(declare-fun p12() Bool)
(declare-fun p5() Bool)
(declare-fun p58() Bool)
(declare-fun p77() Bool)
(declare-fun p40() Bool)
(declare-fun p26() Bool)
(declare-fun p72() Bool)
(declare-fun p85() Bool)
(declare-fun p67() Bool)
(declare-fun p50() Bool)
(declare-fun p28() Bool)
(declare-fun p61() Bool)
(assert
(and (or (not p83) (not p2) (not p20)) (or (not p66) p80 (not p19)) (or (not p3) (not p52) p36) (or (not p11) p89 p42) (or (not p81) p49 (not p36)) (or (not p69) (not p43) (not p13)) (or (not p16) (not p8) p41) (or (not p75) p39 p82) (or p13 p38 p69) (or p33 p88 (not p37)) (or (not p62) (not p34) p71) (or p51 p23 p68) (or p43 p46 (not p36)) (or (not p47) p14 p46) (or (not p27) (not p65) (not p68)) (or (not p86) p78 p34) (or (not p3) (not p82) p84) (or (not p59) (not p88) p35) (or p39 (not p56) p55) (or (not p10) p14 p9) (or (not p18) (not p29) p43) (or p78 (not p81) p20) (or (not p11) (not p7) p64) (or p9 p16 (not p76)) (or (not p43) (not p71) (not p69)) (or (not p0) (not p37) p79) (or p42 p88 (not p63)) (or (not p68) p30 p16) (or (not p60) (not p17) (not p83)) (or (not p82) p30 (not p52)) (or (not p45) (not p76) (not p80)) (or p9 p55 (not p60)) (or p0 p4 p78) (or p6 p0 p14) (or (not p7) p24 p73) (or (not p87) (not p51) p15) (or (not p22) p34 p88) (or p54 (not p1) p25) (or p36 p57 p44) (or p44 (not p56) p62) (or (not p14) p51 p0) (or (not p1) p79 p0) (or p62 p30 p87) (or p60 (not p57) p39) (or p17 p13 (not p56)) (or (not p75) p84 p70) (or p48 p35 (not p47)) (or (not p65) (not p55) (not p21)) (or p59 (not p27) p53) (or p38 (not p17) p45) (or p62 (not p89) p64) (or (not p13) (not p32) (not p7)) (or p39 p4 (not p56)) (or p31 (not p74) (not p47)) (or (not p37) (not p12) (not p54)) (or p51 p83 p5) (or p10 (not p52) p25) (or p53 p66 (not p21)) (or p54 p79 p58) (or p11 p73 (not p77)) (or (not p87) p0 p84) (or (not p10) (not p83) (not p70)) (or (not p40) (not p79) (not p44)) (or (not p15) (not p76) (not p52)) (or p48 p12 (not p48)) (or p76 (not p52) (not p15)) (or p66 p48 (not p11)) (or (not p62) (not p11) (not p53)) (or p68 p16 (not p48)) (or (not p48) p31 p87) (or (not p33) p47 p2) (or p25 p43 (not p9)) (or (not p65) (not p33) p34) (or p35 (not p42) (not p48)) (or p1 (not p32) p19) (or p68 p84 p69) (or p45 p60 (not p79)) (or (not p0) (not p3) (not p18)) (or p0 p69 p80) (or p9 (not p73) p10) (or p68 p3 p80) (or p9 (not p15) (not p24)) (or (not p42) (not p71) (not p26)) (or (not p23) (not p8) (not p30)) (or p14 (not p30) (not p84)) (or (not p58) p72 p37) (or p38 (not p32) (not p1)) (or p65 p57 p49) (or p88 p24 p85) (or p87 (not p70) p14) (or (not p56) p52 (not p25)) (or (not p74) p67 (not p89)) (or p72 p0 p79) (or p46 (not p50) (not p34)) (or (not p57) (not p13) (not p10)) (or (not p4) p21 (not p74)) (or p73 (not p81) p36) (or p22 p64 (not p82)) (or (not p33) (not p88) p26) (or (not p37) (not p54) (not p82)) (or (not p81) p43 p89) (or (not p22) (not p42) p75) (or (not p84) (not p76) (not p64)) (or (not p46) (not p86) p83) (or (not p33) p82 p17) (or p72 (not p20) (not p67)) (or p35 p4 p4) (or (not p7) p42 p89) (or (not p86) (not p57) (not p25)) (or p21 (not p46) p20) (or p2 (not p58) p16) (or p63 p46 p56) (or p22 p78 p58) (or p1 p59 (not p20)) (or (not p45) p58 p80) (or (not p15) p20 (not p2)) (or (not p46) p25 p80) (or (not p72) p81 (not p67)) (or p88 (not p48) p72) (or (not p21) p55 (not p27)) (or (not p1) (not p56) p1) (or (not p74) (not p67) p49) (or p57 p8 p28) (or p1 (not p55) p43) (or (not p8) p67 p24) (or p19 (not p77) (not p75)) (or (not p51) (not p74) p82) (or p78 (not p21) (not p15)) (or (not p81) (not p52) (not p1)) (or p6 (not p33) (not p71)) (or (not p48) p70 p58) (or p19 (not p61) p45) (or p67 (not p79) (not p78)) (or (not p22) (not p72) (not p39)) (or p10 p34 p30) (or p63 (not p20) p85) (or (not p56) p47 (not p87)) (or p75 p24 p69) (or (not p87) p45 p37) (or p50 p61 (not p10)) (or (not p2) p84 p79) (or p5 p40 p45) (or p69 (not p32) (not p69)) (or (not p14) p49 (not p59)) (or (not p53) (not p83) (not p87)) (or (not p31) p60 (not p8)) (or (not p5) p13 p78) (or (not p78) p28 p21) (or (not p46) p89 (not p71)) (or p73 p51 p84) (or p9 p24 (not p89)) (or p24 (not p87) (not p1)) (or p9 (not p25) (not p36)) (or p36 p4 (not p18)) (or (not p15) (not p23) (not p46)) (or p49 (not p0) (not p26)) (or p63 p87 p5) (or (not p57) (not p58) p12) (or (not p89) (not p32) p86) (or (not p6) (not p76) p26) (or p34 p48 (not p83)) (or p44 (not p86) p3) (or (not p44) (not p71) (not p2)) (or p86 p8 (not p76)) (or p9 p24 p11) (or (not p35) (not p19) p32) (or p83 p45 (not p55)) (or p30 (not p0) (not p59)) (or p17 (not p20) p82) (or p67 p71 p28) (or p60 p73 p20) (or p27 (not p68) (not p28)) (or p33 (not p81) p62) (or p46 p88 p11) (or p74 p25 (not p43)) (or p56 (not p36) p67) (or p65 p4 (not p19)) (or (not p58) (not p76) p30) (or (not p4) p23 p37) (or (not p36) (not p62) (not p88)) (or (not p31) (not p46) p61) (or p69 p72 p36) (or p88 p6 p21) (or p69 p79 (not p69)) (or p1 p6 p35) (or p66 p34 (not p87)) (or p67 p45 (not p78)) (or (not p2) p83 (not p25)) (or p38 (not p14) p83) (or p33 p65 p73) (or (not p4) (not p61) (not p64)) (or p25 p81 (not p84)) (or (not p64) p66 (not p35)) (or (not p47) p52 p10) (or (not p43) p24 p3) (or (not p76) (not p65) p27) (or p34 p2 (not p38)) (or p41 p57 p31) (or (not p4) p36 (not p83)) (or p84 (not p68) p1) (or (not p12) (not p36) p66) (or p61 p37 p80) (or p8 (not p43) (not p69)) (or p80 (not p64) p74) (or (not p10) p58 (not p76)) (or (not p53) p82 p73) (or p7 p20 p8) (or p38 p43 p50) (or p8 p66 (not p27)) (or p58 p40 p12) (or p68 (not p85) (not p76)) (or p7 p42 p45) (or (not p66) p26 (not p30)) (or (not p50) (not p30) p30) (or p24 p32 (not p18)) (or (not p65) (not p31) p89) (or p82 (not p38) (not p14)) (or p77 (not p13) p28) (or p11 (not p23) p15) (or p10 (not p56) p54) (or (not p66) (not p85) p73) (or p12 (not p11) p17) (or (not p69) p42 (not p40)) (or p13 p73 p86) (or (not p22) (not p41) (not p47)) (or p58 (not p19) p72) (or p45 (not p76) (not p0)) (or p9 p0 p39) (or (not p68) (not p71) (not p64)) (or p64 (not p39) p16) (or p29 (not p55) (not p82)) (or p81 p68 p50) (or p29 (not p7) p47) (or (not p89) (not p82) p81) (or p14 (not p73) p63) (or (not p33) (not p25) (not p77)) (or (not p22) (not p61) p70) (or p54 p56 p10) (or (not p37) (not p66) (not p86)) (or p23 p4 (not p24)) (or (not p80) p18 (not p40)) (or p8 (not p87) p24) (or (not p9) (not p77) (not p6)) (or (not p27) (not p37) p22) (or (not p65) p87 (not p48)) (or p6 p36 (not p47)) (or (not p34) p49 p62) (or (not p30) (not p7) (not p39)) (or p62 p35 (not p79)) (or (not p11) (not p20) p2) (or (not p42) (not p36) p49) (or p38 (not p72) p60) (or p20 (not p63) p69) (or (not p84) (not p49) (not p38)) (or p47 (not p18) p72) (or p43 p49 p9) (or p15 (not p58) (not p51)) (or (not p45) p40 p46) (or p72 (not p77) p89) (or (not p65) (not p10) p75) (or (not p73) (not p39) p16) (or p68 p1 p74) (or (not p41) (not p40) p62) (or (not p5) (not p49) p31) (or p66 (not p24) (not p71)) (or (not p76) (not p5) (not p11)) (or p88 (not p74) p35) (or p49 (not p45) (not p65)) (or p55 (not p68) (not p61)) (or p23 (not p54) p67) (or (not p75) p55 (not p25)) (or p68 (not p33) p44) (or p70 p63 p88) (or (not p71) p83 (not p59)) (or p71 p41 p44) (or p48 p27 (not p64)) (or (not p27) p11 p63) (or p37 (not p49) (not p22)) (or (not p71) p82 (not p47)) (or p47 (not p8) p8) (or p18 p48 p78) (or (not p36) (not p54) (not p10)) (or p24 p44 p1) (or (not p42) p56 p2) (or p34 (not p50) (not p79)) (or p19 (not p5) (not p23)) (or (not p65) (not p55) (not p40)) (or (not p6) p86 (not p41)) (or (not p35) (not p23) p16) (or (not p62) (not p52) p3) (or p18 p21 p31) (or p1 p50 (not p12)) (or (not p40) (not p24) (not p54)) (or (not p6) (not p69) (not p8)) (or p44 p6 (not p73)) (or p21 p77 (not p77)) (or (not p30) (not p50) p4) (or p39 (not p18) (not p5)) (or (not p4) (not p55) p36) (or (not p59) p69 (not p31)) (or (not p19) p16 p85) (or p66 p19 p76) (or (not p20) p15 (not p65)) (or p47 p12 (not p79)) (or (not p46) (not p7) p7) (or p70 (not p37) p33) (or p17 (not p50) (not p37)) (or (not p5) p23 (not p46)) (or p26 p24 p55) (or (not p75) p54 (not p38)) (or (not p54) p35 p77) (or (not p31) p66 (not p80)) (or p67 (not p89) (not p18)) (or p71 p24 p48) (or (not p30) (not p80) (not p1)) (or p42 p66 p54) (or p50 (not p11) p5) (or (not p32) p73 p0) (or (not p54) (not p57) p38) (or p28 p76 (not p68)) (or (not p54) (not p3) (not p79)) (or p55 (not p83) (not p5)) (or (not p68) p22 p35) (or (not p11) p40 p4) (or p20 p64 (not p46)) (or (not p14) (not p38) p89) (or (not p43) p13 (not p15)) (or p62 p0 (not p83)) (or (not p78) (not p86) (not p32)) (or (not p33) p15 p23) (or p38 p12 (not p9)) (or p32 (not p63) (not p68)) (or (not p40) p33 p44) (or p68 (not p29) (not p76)) (or p14 p12 (not p2)) (or p29 (not p70) p69) (or (not p35) p58 p53) (or p6 (not p38) (not p87)) (or (not p77) (not p17) p48) (or (not p49) p4 (not p79)) (or (not p22) (not p62) (not p1)) (or p67 p41 (not p85)) (or p72 p85 p46) (or (not p30) p69 (not p68)) (or p79 (not p55) (not p54)) (or p38 (not p30) p10) (or p45 (not p7) p72) (or p9 p9 (not p67)) (or p80 p68 p67) (or (not p9) (not p65) (not p23)) (or p61 (not p85) p4) (or (not p74) (not p68) (not p7)) (or (not p76) p10 p36) (or (not p27) p78 (not p29)) (or (not p18) (not p88) (not p60)) (or (not p53) p6 (not p52)) (or p39 p73 (not p63)) (or p34 p36 p48) (or p86 p51 (not p10)) (or (not p77) p72 p54) (or p77 (not p69) (not p29)) (or p74 (not p18) p17) (or (not p82) p52 (not p64)) (or p68 p9 p0) (or p41 (not p28) (not p89)) (or (not p17) p52 (not p55)) (or p4 p19 p74) (or (not p24) (not p9) p44) (or p22 (not p71) (not p57)) (or (not p83) p70 (not p0)) (or (not p84) (not p16) p87) (or (not p54) p37 (not p86)) (or (not p64) (not p70) p66) (or (not p17) p80 p86) (or (not p33) (not p26) (not p76)) (or (not p81) (not p49) (not p36)) (or p54 (not p62) (not p82)) (or p6 p56 p36) (or p21 (not p67) (not p20)) (or (not p37) p83 (not p8)) (or (not p82) p72 p29) (or p25 p65 p45) (or p66 p76 p2) (or (not p81) p28 p46) (or p9 (not p89) p57) (or (not p65) (not p28) (not p83)) (or p7 (not p5) p26) (or (not p46) p84 (not p87)) (or p37 (not p83) (not p6)) (or (not p40) (not p43) p46) (or p19 p46 p36) (or p84 p81 (not p79)) (or p84 p38 p69) (or p71 (not p22) p8) (or p75 (not p53) p51) (or (not p12) p31 (not p30)) (or p57 (not p35) (not p23)) (or p70 p45 p45) (or (not p66) p19 (not p60)) (or p13 p51 p64) (or p7 (not p13) (not p72)) (or (not p76) p86 p42) (or (not p9) p81 p70) (or p38 p51 p11) (or (not p25) p12 p48) (or (not p85) p83 (not p26)) (or (not p72) p6 (not p47)) (or (not p46) (not p2) (not p32)) (or (not p9) (not p7) (not p18)) (or (not p76) p86 (not p38)) (or (not p44) (not p60) (not p4)) (or p58 (not p44) (not p2)) (or p1 p11 p52) (or (not p24) p64 (not p42)) (or p77 (not p0) (not p40)) (or (not p34) p50 (not p43)) (or p43 p50 p17) (or (not p7) (not p58) (not p76)) (or (not p22) (not p4) (not p22)) (or (not p42) (not p47) (not p19)) (or (not p89) p23 (not p57)) (or p16 (not p76) (not p87)) (or (not p53) p86 (not p39)) (or (not p3) (not p75) p36) (or (not p43) (not p14) (not p5)) (or p30 p4 (not p62)) (or p35 p85 (not p19)) (or p37 p42 (not p35)) (or p34 p87 (not p30)) (or (not p34) p2 p63) (or (not p67) (not p50) p53) (or (not p47) p2 (not p65)) (or p63 p34 (not p48)) (or p31 p13 (not p85)) (or p42 (not p43) (not p10)) (or (not p71) p71 (not p84)) (or p81 p71 (not p77)) (or (not p0) p35 p88) (or p59 p26 (not p65)) (or p12 p72 p48) (or p89 p4 (not p77)) (or (not p72) p35 (not p59)) (or p4 p37 (not p5)) (or (not p29) p79 (not p65)) (or (not p81) (not p58) p67) (or (not p22) p70 p55) (or p11 p71 (not p0)) (or p39 (not p50) p73))
)
(check-sat)
(get-model)
